898,833
635,702
463,248
927,745
504,753
734,433
699,463
858,434
593,420
542,833
699,463
980,-6
787,512
789,193
802,494
826,301
1137,258
639,672
641,486
560,494
681,586
1041,46
494,501
681,226
927,745
685,377
1062,787
923,582
711,406
245,723
1162,161
523,188
1036,462
681,166
494,311
